\ENCODING=ISO-8859-1
\Problem name: ilog.cplex

Minimize
 obj1: 105560 x1 + 92616 x2 + 96596 x3 + 103073 x4 + 91404 x5 + 91514 x6
       + 94243 x7 + 92043 x8 + 108931 x9 + 107622 x10 + 103570 x11 + 107967 x12
       + 104591 x13 + 102918 x14 + 101851 x15 + 99663 x16 + 103483 x17
       + 100693 x18 + 90655 x19 + 108448 x20 + 92477 x21 + 103629 x22
       + 99917 x23 + 106513 x24 + 104673 x25 + 106170 x26 + 99808 x27
       + 91252 x28 + 109310 x29 + 90593 x30 + 104491 x31 + 102798 x32
       + 107561 x33 + 94474 x34 + 103416 x35 + 98075 x36 + 106523 x37
       + 96192 x38 + 93020 x39 + 91478 x40 + 91217 x41 + 104652 x42
       + 104538 x43 + 99588 x44 + 97592 x45 + 99578 x46 + 92074 x47
       + 105386 x48 + 108266 x49 + 109538 x50 + 96293 x51 + 101838 x52
       + 107162 x53 + 99032 x54 + 96093 x55 + 91268 x56 + 97880 x57
       + 106205 x58 + 91236 x59 + 90557 x60 + 98346 x61 + 94719 x62
       + 108513 x63 + 96161 x64 + 106438 x65 + 100725 x66 + 105054 x67
       + 97158 x68 + 108944 x69 + 99092 x70 + 106684 x71 + 93167 x72
       + 96461 x73 + 105030 x74 + 109046 x75 + 105225 x76 + 103807 x77
       + 103106 x78 + 97551 x79 + 93014 x80 + 91375 x81 + 97448 x82
       + 108652 x83 + 96561 x84 + 107143 x85 + 91944 x86 + 101989 x87
       + 90816 x88 + 103864 x89 + 99902 x90 + 100601 x91 + 97516 x92
       + 91496 x93 + 108903 x94 + 104754 x95 + 100307 x96 + 101017 x97
       + 108454 x98 + 93803 x99 + 96293 x100 + 90030 x101 + 97801 x102
       + 106774 x103 + 109062 x104 + 94438 x105 + 95831 x106 + 92935 x107
       + 90561 x108 + 107171 x109 + 97703 x110 + 99465 x111 + 97688 x112
       + 100712 x113 + 107424 x114 + 92268 x115 + 101705 x116 + 99771 x117
       + 104343 x118 + 107211 x119 + 104074 x120 + 100551 x121 + 103709 x122
       + 91272 x123 + 100074 x124 + 92987 x125 + 92923 x126 + 90689 x127
       + 102343 x128 + 99317 x129 + 102770 x130 + 93899 x131 + 107241 x132
       + 100129 x133 + 95301 x134 + 95212 x135 + 102118 x136 + 102537 x137
       + 103008 x138 + 98935 x139 + 107355 x140 + 94161 x141 + 97552 x142
       + 93048 x143 + 103498 x144 + 101350 x145 + 100557 x146 + 106569 x147
       + 90816 x148 + 90382 x149 + 93817 x150 + 101784 x151 + 97451 x152
       + 101661 x153 + 95974 x154 + 105289 x155 + 90750 x156 + 103865 x157
       + 97986 x158 + 102210 x159 + 93687 x160 + 101220 x161 + 107139 x162
       + 98150 x163 + 92305 x164 + 95790 x165 + 106898 x166 + 108176 x167
       + 96217 x168 + 105640 x169 + 99511 x170 + 99296 x171 + 100174 x172
       + 100884 x173 + 102086 x174 + 102577 x175 + 98035 x176 + 99838 x177
       + 102559 x178 + 93670 x179 + 91556 x180 + 94194 x181 + 90426 x182
       + 101008 x183 + 97706 x184 + 95476 x185 + 93671 x186 + 92043 x187
       + 95096 x188 + 98923 x189 + 95541 x190 + 109632 x191 + 102628 x192
       + 105523 x193 + 92643 x194 + 103054 x195 + 91631 x196 + 108076 x197
       + 109311 x198 + 101105 x199 + 96495 x200 + 108234 x201 + 95928 x202
       + 94191 x203 + 109893 x204 + 90412 x205 + 96426 x206 + 105616 x207
       + 104685 x208 + 107514 x209 + 104416 x210 + 109563 x211 + 93298 x212
       + 102121 x213 + 99705 x214 + 96102 x215 + 101673 x216 + 99127 x217
       + 94523 x218 + 100315 x219 + 109530 x220 + 92780 x221 + 98770 x222
       + 100373 x223 + 109255 x224 + 105444 x225 + 97722 x226 + 90846 x227
       + 109144 x228 + 95765 x229 + 102824 x230 + 100391 x231 + 93483 x232
       + 98337 x233 + 107576 x234 + 92711 x235 + 101185 x236 + 96926 x237
       + 92589 x238 + 105012 x239 + 104568 x240 + 109033 x241 + 96562 x242
       + 99098 x243 + 100345 x244 + 90770 x245 + 103219 x246 + 106898 x247
       + 106000 x248 + 97984 x249 + 108199 x250 + 104411 x251 + 105444 x252
       + 98551 x253 + 96717 x254 + 99556 x255 + 91715 x256 + 92865 x257
       + 106978 x258 + 95330 x259 + 101428 x260 + 98012 x261 + 98606 x262
       + 94221 x263 + 97586 x264 + 104297 x265 + 94207 x266 + 96896 x267
       + 94080 x268 + 90465 x269 + 100528 x270 + 90812 x271 + 105325 x272
       + 91761 x273 + 108900 x274 + 109031 x275 + 96283 x276 + 93947 x277
       + 102349 x278 + 97099 x279 + 106999 x280 + 94591 x281 + 90460 x282
       + 105432 x283 + 108596 x284 + 100316 x285 + 96199 x286 + 104822 x287
       + 96134 x288 + 106704 x289 + 97715 x290 + 103453 x291 + 97817 x292
       + 96143 x293 + 102484 x294 + 105287 x295 + 99752 x296 + 108133 x297
       + 101219 x298 + 91678 x299 + 90776 x300 + 102850 x301 + 108219 x302
       + 107097 x303 + 102752 x304 + 99068 x305 + 90309 x306 + 99250 x307
       + 92063 x308 + 103566 x309 + 91785 x310 + 101894 x311 + 104063 x312
       + 95433 x313 + 101516 x314 + 104463 x315 + 106508 x316 + 102189 x317
       + 104611 x318 + 92866 x319 + 103838 x320 + 107469 x321 + 94206 x322
       + 92030 x323 + 97804 x324 + 92264 x325 + 99549 x326 + 103180 x327
       + 95240 x328 + 99409 x329 + 96197 x330 + 96543 x331 + 91462 x332
       + 106954 x333 + 109605 x334 + 106471 x335 + 106049 x336 + 97635 x337
       + 99518 x338 + 97854 x339 + 96711 x340 + 98889 x341 + 99305 x342
       + 90204 x343 + 106487 x344 + 100655 x345 + 101733 x346 + 98957 x347
       + 109682 x348 + 96696 x349 + 90689 x350 + 96932 x351 + 106225 x352
       + 97997 x353 + 106406 x354 + 105251 x355 + 100495 x356 + 109067 x357
       + 97384 x358 + 100202 x359 + 93970 x360 + 91830 x361 + 90954 x362
       + 108154 x363 + 108827 x364 + 95099 x365 + 109926 x366 + 94420 x367
       + 100277 x368 + 91520 x369 + 105973 x370 + 106051 x371 + 90794 x372
       + 92541 x373 + 97306 x374 + 93184 x375 + 106054 x376 + 106823 x377
       + 95068 x378 + 94842 x379 + 93556 x380 + 107218 x381 + 103392 x382
       + 98722 x383 + 94265 x384 + 107868 x385 + 92802 x386 + 98685 x387
       + 102676 x388 + 90029 x389 + 106940 x390 + 98596 x391 + 91292 x392
       + 92902 x393 + 108573 x394 + 106599 x395 + 91840 x396 + 104051 x397
       + 102432 x398 + 90038 x399 + 97377 x400 + 97015 x401 + 90429 x402
       + 91003 x403 + 105736 x404 + 98104 x405 + 98149 x406 + 106175 x407
       + 93422 x408 + 109492 x409 + 90623 x410 + 107143 x411 + 99915 x412
       + 93873 x413 + 96770 x414 + 107535 x415 + 91936 x416 + 107269 x417
       + 107590 x418 + 91883 x419 + 98520 x420 + 109305 x421 + 100458 x422
       + 101296 x423 + 101318 x424 + 109235 x425 + 93479 x426 + 108180 x427
       + 102345 x428 + 109559 x429 + 97311 x430 + 94911 x431 + 92554 x432
       + 101592 x433 + 96429 x434 + 99180 x435 + 96932 x436 + 95486 x437
       + 96957 x438 + 102208 x439 + 94865 x440 + 90986 x441 + 104025 x442
       + 95089 x443 + 108061 x444 + 94587 x445 + 98000 x446 + 103253 x447
       + 92621 x448 + 103782 x449 + 106015 x450 + 92890 x451 + 90736 x452
       + 90472 x453 + 95958 x454 + 103841 x455 + 109723 x456 + 92035 x457
       + 92576 x458 + 100279 x459 + 101093 x460 + 98016 x461 + 103047 x462
       + 99594 x463 + 95324 x464 + 107005 x465 + 93654 x466 + 99946 x467
       + 93545 x468 + 90344 x469 + 104600 x470 + 101932 x471 + 94731 x472
       + 104186 x473 + 106071 x474 + 90373 x475 + 105287 x476 + 105783 x477
       + 102609 x478 + 91576 x479 + 106456 x480 + 106825 x481 + 104771 x482
       + 94042 x483 + 96000 x484 + 107155 x485 + 98355 x486 + 93937 x487
       + 107129 x488 + 93285 x489 + 108326 x490 + 100543 x491 + 99915 x492
       + 97907 x493 + 97127 x494 + 91466 x495 + 98215 x496 + 98902 x497
       + 95194 x498 + 102558 x499 + 257132 x500 + 428319 x501 + 361510 x502
       + 426331 x503 + 413398 x504 + 406956 x505 + 413823 x506 + 374112 x507
       + 388036 x508 + 429292 x509 + 366274 x510 + 394273 x511 + 411693 x512
       + 368336 x513 + 383714 x514 + 363380 x515 + 381315 x516 + 368422 x517
       + 421899 x518 + 360715 x519 + 409534 x520 + 366542 x521 + 433623 x522
       + 387032 x523 + 371101 x524 + 413194 x525 + 371548 x526 + 393571 x527
       + 428286 x528 + 405030 x529 + 376663 x530 + 373671 x531 + 383907 x532
       + 363564 x533 + 367652 x534 + 405000 x535 + 360770 x536 + 403628 x537
       + 420294 x538 + 433656 x539 + 383832 x540 + 392231 x541 + 367324 x542
       + 382071 x543 + 426511 x544 + 362924 x545 + 398010 x546 + 360857 x547
       + 415139 x548 + 422734 x549 + 758303 x550
Subject To
 c1:   x2 + x5 - x13 - x24 - x27 - x40 - x42 + x45  = -1
 c2:   x52 + x55 - x63 - x74 - x77 - x90 - x92 + x95  = 0
 c3:   x102 + x105 - x113 - x124 - x127 - x140 - x142 + x145  = 0
 c4:   x152 + x155 - x163 - x174 - x177 - x190 - x192 + x195  = 0
 c5:   x202 + x205 - x213 - x224 - x227 - x240 - x242 + x245  = 0
 c6:   x252 + x255 - x263 - x274 - x277 - x290 - x292 + x295  = 0
 c7:   x302 + x305 - x313 - x324 - x327 - x340 - x342 + x345  = -1
 c8:   x352 + x355 - x363 - x374 - x377 - x390 - x392 + x395  = 0
 c9:   x402 + x405 - x413 - x424 - x427 - x440 - x442 + x445  = 0
 c10:  x452 + x455 - x463 - x474 - x477 - x490 - x492 + x495  = 0
 c11:  - x3 + x17 - x18 - x20 + x22 + x27 + x30 + x31 - x32 + x34 + x41  = 0
 c12:  - x53 + x67 - x68 - x70 + x72 + x77 + x80 + x81 - x82 + x84 + x91  = 0
 c13:  - x103 + x117 - x118 - x120 + x122 + x127 + x130 + x131 - x132 + x134
       + x141  = 0
 c14:  - x153 + x167 - x168 - x170 + x172 + x177 + x180 + x181 - x182 + x184
       + x191  = 0
 c15:  - x203 + x217 - x218 - x220 + x222 + x227 + x230 + x231 - x232 + x234
       + x241  = 0
 c16:  - x253 + x267 - x268 - x270 + x272 + x277 + x280 + x281 - x282 + x284
       + x291  = 0
 c17:  - x303 + x317 - x318 - x320 + x322 + x327 + x330 + x331 - x332 + x334
       + x341  = 0
 c18:  - x353 + x367 - x368 - x370 + x372 + x377 + x380 + x381 - x382 + x384
       + x391  = 1
 c19:  - x403 + x417 - x418 - x420 + x422 + x427 + x430 + x431 - x432 + x434
       + x441  = 0
 c20:  - x453 + x467 - x468 - x470 + x472 + x477 + x480 + x481 - x482 + x484
       + x491  = 0
 c21:  x6 - x7 + x13 - x19 + x20 + x33 + x35 - x36 - x43 + x44 - x47 + x49
       + x50  = 0
 c22:  x56 - x57 + x63 - x69 + x70 + x83 + x85 - x86 - x93 + x94 - x97 + x99
       + x100  = 0
 c23:  x106 - x107 + x113 - x119 + x120 + x133 + x135 - x136 - x143 + x144
       - x147 + x149 + x150  = 0
 c24:  x156 - x157 + x163 - x169 + x170 + x183 + x185 - x186 - x193 + x194
       - x197 + x199 + x200  = 0
 c25:  x206 - x207 + x213 - x219 + x220 + x233 + x235 - x236 - x243 + x244
       - x247 + x249 + x250  = 0
 c26:  x256 - x257 + x263 - x269 + x270 + x283 + x285 - x286 - x293 + x294
       - x297 + x299 + x300  = 0
 c27:  x306 - x307 + x313 - x319 + x320 + x333 + x335 - x336 - x343 + x344
       - x347 + x349 + x350  = 1
 c28:  x356 - x357 + x363 - x369 + x370 + x383 + x385 - x386 - x393 + x394
       - x397 + x399 + x400  = 0
 c29:  x406 - x407 + x413 - x419 + x420 + x433 + x435 - x436 - x443 + x444
       - x447 + x449 + x450  = 0
 c30:  x456 - x457 + x463 - x469 + x470 + x483 + x485 - x486 - x493 + x494
       - x497 + x499 + x500  = 0
 c31:  - x14 + x15 + x16 - x25 + x26 - x28 + x32 - x33 + x42 - x45 - x46  = 0
 c32:  - x64 + x65 + x66 - x75 + x76 - x78 + x82 - x83 + x92 - x95 - x96  = 0
 c33:  - x114 + x115 + x116 - x125 + x126 - x128 + x132 - x133 + x142 - x145
       - x146  = 0
 c34:  - x164 + x165 + x166 - x175 + x176 - x178 + x182 - x183 + x192 - x195
       - x196  = -1
 c35:  - x214 + x215 + x216 - x225 + x226 - x228 + x232 - x233 + x242 - x245
       - x246  = 0
 c36:  - x264 + x265 + x266 - x275 + x276 - x278 + x282 - x283 + x292 - x295
       - x296  = 0
 c37:  - x314 + x315 + x316 - x325 + x326 - x328 + x332 - x333 + x342 - x345
       - x346  = 0
 c38:  - x364 + x365 + x366 - x375 + x376 - x378 + x382 - x383 + x392 - x395
       - x396  = 0
 c39:  - x414 + x415 + x416 - x425 + x426 - x428 + x432 - x433 + x442 - x445
       - x446  = -1
 c40:  - x464 + x465 + x466 - x475 + x476 - x478 + x482 - x483 + x492 - x495
       - x496  = 0
 c41:  x1 + x3 - x5 - x6 + x9 + x10 - x21 + x37 + x39 - x41 + x43 + x46  = 0
 c42:  x51 + x53 - x55 - x56 + x59 + x60 - x71 + x87 + x89 - x91 + x93 + x96
        = 0
 c43:  x101 + x103 - x105 - x106 + x109 + x110 - x121 + x137 + x139 - x141
       + x143 + x146  = 0
 c44:  x151 + x153 - x155 - x156 + x159 + x160 - x171 + x187 + x189 - x191
       + x193 + x196  = 0
 c45:  x201 + x203 - x205 - x206 + x209 + x210 - x221 + x237 + x239 - x241
       + x243 + x246  = 0
 c46:  x251 + x253 - x255 - x256 + x259 + x260 - x271 + x287 + x289 - x291
       + x293 + x296  = 0
 c47:  x301 + x303 - x305 - x306 + x309 + x310 - x321 + x337 + x339 - x341
       + x343 + x346  = 0
 c48:  x351 + x353 - x355 - x356 + x359 + x360 - x371 + x387 + x389 - x391
       + x393 + x396  = -1
 c49:  x401 + x403 - x405 - x406 + x409 + x410 - x421 + x437 + x439 - x441
       + x443 + x446  = 0
 c50:  x451 + x453 - x455 - x456 + x459 + x460 - x471 + x487 + x489 - x491
       + x493 + x496  = 0
 c51:  - x4 - x10 - x11 - x12 + x14 - x16 - x31 + x36  = 0
 c52:  - x54 - x60 - x61 - x62 + x64 - x66 - x81 + x86  = 0
 c53:  - x104 - x110 - x111 - x112 + x114 - x116 - x131 + x136  = -1
 c54:  - x154 - x160 - x161 - x162 + x164 - x166 - x181 + x186  = 0
 c55:  - x204 - x210 - x211 - x212 + x214 - x216 - x231 + x236  = 0
 c56:  - x254 - x260 - x261 - x262 + x264 - x266 - x281 + x286  = 0
 c57:  - x304 - x310 - x311 - x312 + x314 - x316 - x331 + x336  = 0
 c58:  - x354 - x360 - x361 - x362 + x364 - x366 - x381 + x386  = 0
 c59:  - x404 - x410 - x411 - x412 + x414 - x416 - x431 + x436  = 0
 c60:  - x454 - x460 - x461 - x462 + x464 - x466 - x481 + x486  = 0
 c61:  x19 + x23 - x26 - x30 - x37 + x38 + x40 - x48 - x49  = 1
 c62:  x69 + x73 - x76 - x80 - x87 + x88 + x90 - x98 - x99  = 0
 c63:  x119 + x123 - x126 - x130 - x137 + x138 + x140 - x148 - x149  = 0
 c64:  x169 + x173 - x176 - x180 - x187 + x188 + x190 - x198 - x199  = 0
 c65:  x219 + x223 - x226 - x230 - x237 + x238 + x240 - x248 - x249  = 1
 c66:  x269 + x273 - x276 - x280 - x287 + x288 + x290 - x298 - x299  = -1
 c67:  x319 + x323 - x326 - x330 - x337 + x338 + x340 - x348 - x349  = 0
 c68:  x369 + x373 - x376 - x380 - x387 + x388 + x390 - x398 - x399  = 0
 c69:  x419 + x423 - x426 - x430 - x437 + x438 + x440 - x448 - x449  = 0
 c70:  x469 + x473 - x476 - x480 - x487 + x488 + x490 - x498 - x499  = 0
 c71:  x7 + x8 + x12 - x17 + x18 - x23 + x25 - x35 - x39  = 0
 c72:  x57 + x58 + x62 - x67 + x68 - x73 + x75 - x85 - x89  = 1
 c73:  x107 + x108 + x112 - x117 + x118 - x123 + x125 - x135 - x139  = 1
 c74:  x157 + x158 + x162 - x167 + x168 - x173 + x175 - x185 - x189  = 0
 c75:  x207 + x208 + x212 - x217 + x218 - x223 + x225 - x235 - x239  = 0
 c76:  x257 + x258 + x262 - x267 + x268 - x273 + x275 - x285 - x289  = 0
 c77:  x307 + x308 + x312 - x317 + x318 - x323 + x325 - x335 - x339  = 0
 c78:  x357 + x358 + x362 - x367 + x368 - x373 + x375 - x385 - x389  = 0
 c79:  x407 + x408 + x412 - x417 + x418 - x423 + x425 - x435 - x439  = 0
 c80:  x457 + x458 + x462 - x467 + x468 - x473 + x475 - x485 - x489  = 0
 c81:  x4 - x9 - x15 + x21 - x22 + x24 + x29 - x38 - x44  = 0
 c82:  x54 - x59 - x65 + x71 - x72 + x74 + x79 - x88 - x94  = -1
 c83:  x104 - x109 - x115 + x121 - x122 + x124 + x129 - x138 - x144  = 0
 c84:  x154 - x159 - x165 + x171 - x172 + x174 + x179 - x188 - x194  = 1
 c85:  x204 - x209 - x215 + x221 - x222 + x224 + x229 - x238 - x244  = 0
 c86:  x254 - x259 - x265 + x271 - x272 + x274 + x279 - x288 - x294  = 1
 c87:  x304 - x309 - x315 + x321 - x322 + x324 + x329 - x338 - x344  = 0
 c88:  x354 - x359 - x365 + x371 - x372 + x374 + x379 - x388 - x394  = 0
 c89:  x404 - x409 - x415 + x421 - x422 + x424 + x429 - x438 - x444  = 0
 c90:  x454 - x459 - x465 + x471 - x472 + x474 + x479 - x488 - x494  = 1
 c91:  - x1 - x2 - x8 + x11 + x28 - x29 - x34 + x47 + x48 - x50  = 0
 c92:  - x51 - x52 - x58 + x61 + x78 - x79 - x84 + x97 + x98 - x100  = 0
 c93:  - x101 - x102 - x108 + x111 + x128 - x129 - x134 + x147 + x148 - x150
        = 0
 c94:  - x151 - x152 - x158 + x161 + x178 - x179 - x184 + x197 + x198 - x200
        = 0
 c95:  - x201 - x202 - x208 + x211 + x228 - x229 - x234 + x247 + x248 - x250
        = -1
 c96:  - x251 - x252 - x258 + x261 + x278 - x279 - x284 + x297 + x298 - x300
        = 0
 c97:  - x301 - x302 - x308 + x311 + x328 - x329 - x334 + x347 + x348 - x350
        = 0
 c98:  - x351 - x352 - x358 + x361 + x378 - x379 - x384 + x397 + x398 - x400
        = 0
 c99:  - x401 - x402 - x408 + x411 + x428 - x429 - x434 + x447 + x448 - x450
        = 1
 c100: - x451 - x452 - x458 + x461 + x478 - x479 - x484 + x497 + x498 - x500
        = -1
 c101: 4 x1 + 4 x51 + 4 x101 + 4 x151 + 4 x201 + 4 x251 + 4 x301 + 4 x351
       + 4 x401 + 4 x451 - 20 x501 <= 0
 c102: 4 x2 + 4 x52 + 4 x102 + 4 x152 + 4 x202 + 4 x252 + 4 x302 + 4 x352
       + 4 x402 + 4 x452 - 21 x502 <= 0
 c103: 4 x3 + 4 x53 + 4 x103 + 4 x153 + 4 x203 + 4 x253 + 4 x303 + 4 x353
       + 4 x403 + 4 x453 - 22 x503 <= 0
 c104: 4 x4 + 4 x54 + 4 x104 + 4 x154 + 4 x204 + 4 x254 + 4 x304 + 4 x354
       + 4 x404 + 4 x454 - 18 x504 <= 0
 c105: 4 x5 + 4 x55 + 4 x105 + 4 x155 + 4 x205 + 4 x255 + 4 x305 + 4 x355
       + 4 x405 + 4 x455 - 21 x505 <= 0
 c106: 4 x6 + 4 x56 + 4 x106 + 4 x156 + 4 x206 + 4 x256 + 4 x306 + 4 x356
       + 4 x406 + 4 x456 - 19 x506 <= 0
 c107: 4 x7 + 4 x57 + 4 x107 + 4 x157 + 4 x207 + 4 x257 + 4 x307 + 4 x357
       + 4 x407 + 4 x457 - 21 x507 <= 0
 c108: 4 x8 + 4 x58 + 4 x108 + 4 x158 + 4 x208 + 4 x258 + 4 x308 + 4 x358
       + 4 x408 + 4 x458 - 19 x508 <= 0
 c109: 4 x9 + 4 x59 + 4 x109 + 4 x159 + 4 x209 + 4 x259 + 4 x309 + 4 x359
       + 4 x409 + 4 x459 - 19 x509 <= 0
 c110: 4 x10 + 4 x60 + 4 x110 + 4 x160 + 4 x210 + 4 x260 + 4 x310 + 4 x360
       + 4 x410 + 4 x460 - 21 x510 <= 0
 c111: 4 x11 + 4 x61 + 4 x111 + 4 x161 + 4 x211 + 4 x261 + 4 x311 + 4 x361
       + 4 x411 + 4 x461 - 21 x511 <= 0
 c112: 4 x12 + 4 x62 + 4 x112 + 4 x162 + 4 x212 + 4 x262 + 4 x312 + 4 x362
       + 4 x412 + 4 x462 - 19 x512 <= 0
 c113: 4 x13 + 4 x63 + 4 x113 + 4 x163 + 4 x213 + 4 x263 + 4 x313 + 4 x363
       + 4 x413 + 4 x463 - 21 x513 <= 0
 c114: 4 x14 + 4 x64 + 4 x114 + 4 x164 + 4 x214 + 4 x264 + 4 x314 + 4 x364
       + 4 x414 + 4 x464 - 21 x514 <= 0
 c115: 4 x15 + 4 x65 + 4 x115 + 4 x165 + 4 x215 + 4 x265 + 4 x315 + 4 x365
       + 4 x415 + 4 x465 - 18 x515 <= 0
 c116: 4 x16 + 4 x66 + 4 x116 + 4 x166 + 4 x216 + 4 x266 + 4 x316 + 4 x366
       + 4 x416 + 4 x466 - 21 x516 <= 0
 c117: 4 x17 + 4 x67 + 4 x117 + 4 x167 + 4 x217 + 4 x267 + 4 x317 + 4 x367
       + 4 x417 + 4 x467 - 19 x517 <= 0
 c118: 4 x18 + 4 x68 + 4 x118 + 4 x168 + 4 x218 + 4 x268 + 4 x318 + 4 x368
       + 4 x418 + 4 x468 - 20 x518 <= 0
 c119: 4 x19 + 4 x69 + 4 x119 + 4 x169 + 4 x219 + 4 x269 + 4 x319 + 4 x369
       + 4 x419 + 4 x469 - 20 x519 <= 0
 c120: 4 x20 + 4 x70 + 4 x120 + 4 x170 + 4 x220 + 4 x270 + 4 x320 + 4 x370
       + 4 x420 + 4 x470 - 20 x520 <= 0
 c121: 4 x21 + 4 x71 + 4 x121 + 4 x171 + 4 x221 + 4 x271 + 4 x321 + 4 x371
       + 4 x421 + 4 x471 - 18 x521 <= 0
 c122: 4 x22 + 4 x72 + 4 x122 + 4 x172 + 4 x222 + 4 x272 + 4 x322 + 4 x372
       + 4 x422 + 4 x472 - 19 x522 <= 0
 c123: 4 x23 + 4 x73 + 4 x123 + 4 x173 + 4 x223 + 4 x273 + 4 x323 + 4 x373
       + 4 x423 + 4 x473 - 20 x523 <= 0
 c124: 4 x24 + 4 x74 + 4 x124 + 4 x174 + 4 x224 + 4 x274 + 4 x324 + 4 x374
       + 4 x424 + 4 x474 - 20 x524 <= 0
 c125: 4 x25 + 4 x75 + 4 x125 + 4 x175 + 4 x225 + 4 x275 + 4 x325 + 4 x375
       + 4 x425 + 4 x475 - 19 x525 <= 0
 c126: 4 x26 + 4 x76 + 4 x126 + 4 x176 + 4 x226 + 4 x276 + 4 x326 + 4 x376
       + 4 x426 + 4 x476 - 19 x526 <= 0
 c127: 4 x27 + 4 x77 + 4 x127 + 4 x177 + 4 x227 + 4 x277 + 4 x327 + 4 x377
       + 4 x427 + 4 x477 - 19 x527 <= 0
 c128: 4 x28 + 4 x78 + 4 x128 + 4 x178 + 4 x228 + 4 x278 + 4 x328 + 4 x378
       + 4 x428 + 4 x478 - 19 x528 <= 0
 c129: 4 x29 + 4 x79 + 4 x129 + 4 x179 + 4 x229 + 4 x279 + 4 x329 + 4 x379
       + 4 x429 + 4 x479 - 22 x529 <= 0
 c130: 4 x30 + 4 x80 + 4 x130 + 4 x180 + 4 x230 + 4 x280 + 4 x330 + 4 x380
       + 4 x430 + 4 x480 - 21 x530 <= 0
 c131: 4 x31 + 4 x81 + 4 x131 + 4 x181 + 4 x231 + 4 x281 + 4 x331 + 4 x381
       + 4 x431 + 4 x481 - 21 x531 <= 0
 c132: 4 x32 + 4 x82 + 4 x132 + 4 x182 + 4 x232 + 4 x282 + 4 x332 + 4 x382
       + 4 x432 + 4 x482 - 22 x532 <= 0
 c133: 4 x33 + 4 x83 + 4 x133 + 4 x183 + 4 x233 + 4 x283 + 4 x333 + 4 x383
       + 4 x433 + 4 x483 - 20 x533 <= 0
 c134: 4 x34 + 4 x84 + 4 x134 + 4 x184 + 4 x234 + 4 x284 + 4 x334 + 4 x384
       + 4 x434 + 4 x484 - 19 x534 <= 0
 c135: 4 x35 + 4 x85 + 4 x135 + 4 x185 + 4 x235 + 4 x285 + 4 x335 + 4 x385
       + 4 x435 + 4 x485 - 20 x535 <= 0
 c136: 4 x36 + 4 x86 + 4 x136 + 4 x186 + 4 x236 + 4 x286 + 4 x336 + 4 x386
       + 4 x436 + 4 x486 - 18 x536 <= 0
 c137: 4 x37 + 4 x87 + 4 x137 + 4 x187 + 4 x237 + 4 x287 + 4 x337 + 4 x387
       + 4 x437 + 4 x487 - 21 x537 <= 0
 c138: 4 x38 + 4 x88 + 4 x138 + 4 x188 + 4 x238 + 4 x288 + 4 x338 + 4 x388
       + 4 x438 + 4 x488 - 20 x538 <= 0
 c139: 4 x39 + 4 x89 + 4 x139 + 4 x189 + 4 x239 + 4 x289 + 4 x339 + 4 x389
       + 4 x439 + 4 x489 - 19 x539 <= 0
 c140: 4 x40 + 4 x90 + 4 x140 + 4 x190 + 4 x240 + 4 x290 + 4 x340 + 4 x390
       + 4 x440 + 4 x490 - 20 x540 <= 0
 c141: 4 x41 + 4 x91 + 4 x141 + 4 x191 + 4 x241 + 4 x291 + 4 x341 + 4 x391
       + 4 x441 + 4 x491 - 19 x541 <= 0
 c142: 4 x42 + 4 x92 + 4 x142 + 4 x192 + 4 x242 + 4 x292 + 4 x342 + 4 x392
       + 4 x442 + 4 x492 - 20 x542 <= 0
 c143: 4 x43 + 4 x93 + 4 x143 + 4 x193 + 4 x243 + 4 x293 + 4 x343 + 4 x393
       + 4 x443 + 4 x493 - 21 x543 <= 0
 c144: 4 x44 + 4 x94 + 4 x144 + 4 x194 + 4 x244 + 4 x294 + 4 x344 + 4 x394
       + 4 x444 + 4 x494 - 18 x544 <= 0
 c145: 4 x45 + 4 x95 + 4 x145 + 4 x195 + 4 x245 + 4 x295 + 4 x345 + 4 x395
       + 4 x445 + 4 x495 - 21 x545 <= 0
 c146: 4 x46 + 4 x96 + 4 x146 + 4 x196 + 4 x246 + 4 x296 + 4 x346 + 4 x396
       + 4 x446 + 4 x496 - 19 x546 <= 0
 c147: 4 x47 + 4 x97 + 4 x147 + 4 x197 + 4 x247 + 4 x297 + 4 x347 + 4 x397
       + 4 x447 + 4 x497 - 21 x547 <= 0
 c148: 4 x48 + 4 x98 + 4 x148 + 4 x198 + 4 x248 + 4 x298 + 4 x348 + 4 x398
       + 4 x448 + 4 x498 - 20 x548 <= 0
 c149: 4 x49 + 4 x99 + 4 x149 + 4 x199 + 4 x249 + 4 x299 + 4 x349 + 4 x399
       + 4 x449 + 4 x499 - 20 x549 <= 0
 c150: 4 x50 + 4 x100 + 4 x150 + 4 x200 + 4 x250 + 4 x300 + 4 x350 + 4 x400
       + 4 x450 + 4 x500 - 24 x550 <= 0
Bounds
 0 <= x1 <= 1
 0 <= x2 <= 1
 0 <= x3 <= 1
 0 <= x4 <= 1
 0 <= x5 <= 1
 0 <= x6 <= 1
 0 <= x7 <= 1
 0 <= x8 <= 1
 0 <= x9 <= 1
 0 <= x10 <= 1
 0 <= x11 <= 1
 0 <= x12 <= 1
 0 <= x13 <= 1
 0 <= x14 <= 1
 0 <= x15 <= 1
 0 <= x16 <= 1
 0 <= x17 <= 1
 0 <= x18 <= 1
 0 <= x19 <= 1
 0 <= x20 <= 1
 0 <= x21 <= 1
 0 <= x22 <= 1
 0 <= x23 <= 1
 0 <= x24 <= 1
 0 <= x25 <= 1
 0 <= x26 <= 1
 0 <= x27 <= 1
 0 <= x28 <= 1
 0 <= x29 <= 1
 0 <= x30 <= 1
 0 <= x31 <= 1
 0 <= x32 <= 1
 0 <= x33 <= 1
 0 <= x34 <= 1
 0 <= x35 <= 1
 0 <= x36 <= 1
 0 <= x37 <= 1
 0 <= x38 <= 1
 0 <= x39 <= 1
 0 <= x40 <= 1
 0 <= x41 <= 1
 0 <= x42 <= 1
 0 <= x43 <= 1
 0 <= x44 <= 1
 0 <= x45 <= 1
 0 <= x46 <= 1
 0 <= x47 <= 1
 0 <= x48 <= 1
 0 <= x49 <= 1
 0 <= x50 <= 1
 0 <= x51 <= 1
 0 <= x52 <= 1
 0 <= x53 <= 1
 0 <= x54 <= 1
 0 <= x55 <= 1
 0 <= x56 <= 1
 0 <= x57 <= 1
 0 <= x58 <= 1
 0 <= x59 <= 1
 0 <= x60 <= 1
 0 <= x61 <= 1
 0 <= x62 <= 1
 0 <= x63 <= 1
 0 <= x64 <= 1
 0 <= x65 <= 1
 0 <= x66 <= 1
 0 <= x67 <= 1
 0 <= x68 <= 1
 0 <= x69 <= 1
 0 <= x70 <= 1
 0 <= x71 <= 1
 0 <= x72 <= 1
 0 <= x73 <= 1
 0 <= x74 <= 1
 0 <= x75 <= 1
 0 <= x76 <= 1
 0 <= x77 <= 1
 0 <= x78 <= 1
 0 <= x79 <= 1
 0 <= x80 <= 1
 0 <= x81 <= 1
 0 <= x82 <= 1
 0 <= x83 <= 1
 0 <= x84 <= 1
 0 <= x85 <= 1
 0 <= x86 <= 1
 0 <= x87 <= 1
 0 <= x88 <= 1
 0 <= x89 <= 1
 0 <= x90 <= 1
 0 <= x91 <= 1
 0 <= x92 <= 1
 0 <= x93 <= 1
 0 <= x94 <= 1
 0 <= x95 <= 1
 0 <= x96 <= 1
 0 <= x97 <= 1
 0 <= x98 <= 1
 0 <= x99 <= 1
 0 <= x100 <= 1
 0 <= x101 <= 1
 0 <= x102 <= 1
 0 <= x103 <= 1
 0 <= x104 <= 1
 0 <= x105 <= 1
 0 <= x106 <= 1
 0 <= x107 <= 1
 0 <= x108 <= 1
 0 <= x109 <= 1
 0 <= x110 <= 1
 0 <= x111 <= 1
 0 <= x112 <= 1
 0 <= x113 <= 1
 0 <= x114 <= 1
 0 <= x115 <= 1
 0 <= x116 <= 1
 0 <= x117 <= 1
 0 <= x118 <= 1
 0 <= x119 <= 1
 0 <= x120 <= 1
 0 <= x121 <= 1
 0 <= x122 <= 1
 0 <= x123 <= 1
 0 <= x124 <= 1
 0 <= x125 <= 1
 0 <= x126 <= 1
 0 <= x127 <= 1
 0 <= x128 <= 1
 0 <= x129 <= 1
 0 <= x130 <= 1
 0 <= x131 <= 1
 0 <= x132 <= 1
 0 <= x133 <= 1
 0 <= x134 <= 1
 0 <= x135 <= 1
 0 <= x136 <= 1
 0 <= x137 <= 1
 0 <= x138 <= 1
 0 <= x139 <= 1
 0 <= x140 <= 1
 0 <= x141 <= 1
 0 <= x142 <= 1
 0 <= x143 <= 1
 0 <= x144 <= 1
 0 <= x145 <= 1
 0 <= x146 <= 1
 0 <= x147 <= 1
 0 <= x148 <= 1
 0 <= x149 <= 1
 0 <= x150 <= 1
 0 <= x151 <= 1
 0 <= x152 <= 1
 0 <= x153 <= 1
 0 <= x154 <= 1
 0 <= x155 <= 1
 0 <= x156 <= 1
 0 <= x157 <= 1
 0 <= x158 <= 1
 0 <= x159 <= 1
 0 <= x160 <= 1
 0 <= x161 <= 1
 0 <= x162 <= 1
 0 <= x163 <= 1
 0 <= x164 <= 1
 0 <= x165 <= 1
 0 <= x166 <= 1
 0 <= x167 <= 1
 0 <= x168 <= 1
 0 <= x169 <= 1
 0 <= x170 <= 1
 0 <= x171 <= 1
 0 <= x172 <= 1
 0 <= x173 <= 1
 0 <= x174 <= 1
 0 <= x175 <= 1
 0 <= x176 <= 1
 0 <= x177 <= 1
 0 <= x178 <= 1
 0 <= x179 <= 1
 0 <= x180 <= 1
 0 <= x181 <= 1
 0 <= x182 <= 1
 0 <= x183 <= 1
 0 <= x184 <= 1
 0 <= x185 <= 1
 0 <= x186 <= 1
 0 <= x187 <= 1
 0 <= x188 <= 1
 0 <= x189 <= 1
 0 <= x190 <= 1
 0 <= x191 <= 1
 0 <= x192 <= 1
 0 <= x193 <= 1
 0 <= x194 <= 1
 0 <= x195 <= 1
 0 <= x196 <= 1
 0 <= x197 <= 1
 0 <= x198 <= 1
 0 <= x199 <= 1
 0 <= x200 <= 1
 0 <= x201 <= 1
 0 <= x202 <= 1
 0 <= x203 <= 1
 0 <= x204 <= 1
 0 <= x205 <= 1
 0 <= x206 <= 1
 0 <= x207 <= 1
 0 <= x208 <= 1
 0 <= x209 <= 1
 0 <= x210 <= 1
 0 <= x211 <= 1
 0 <= x212 <= 1
 0 <= x213 <= 1
 0 <= x214 <= 1
 0 <= x215 <= 1
 0 <= x216 <= 1
 0 <= x217 <= 1
 0 <= x218 <= 1
 0 <= x219 <= 1
 0 <= x220 <= 1
 0 <= x221 <= 1
 0 <= x222 <= 1
 0 <= x223 <= 1
 0 <= x224 <= 1
 0 <= x225 <= 1
 0 <= x226 <= 1
 0 <= x227 <= 1
 0 <= x228 <= 1
 0 <= x229 <= 1
 0 <= x230 <= 1
 0 <= x231 <= 1
 0 <= x232 <= 1
 0 <= x233 <= 1
 0 <= x234 <= 1
 0 <= x235 <= 1
 0 <= x236 <= 1
 0 <= x237 <= 1
 0 <= x238 <= 1
 0 <= x239 <= 1
 0 <= x240 <= 1
 0 <= x241 <= 1
 0 <= x242 <= 1
 0 <= x243 <= 1
 0 <= x244 <= 1
 0 <= x245 <= 1
 0 <= x246 <= 1
 0 <= x247 <= 1
 0 <= x248 <= 1
 0 <= x249 <= 1
 0 <= x250 <= 1
 0 <= x251 <= 1
 0 <= x252 <= 1
 0 <= x253 <= 1
 0 <= x254 <= 1
 0 <= x255 <= 1
 0 <= x256 <= 1
 0 <= x257 <= 1
 0 <= x258 <= 1
 0 <= x259 <= 1
 0 <= x260 <= 1
 0 <= x261 <= 1
 0 <= x262 <= 1
 0 <= x263 <= 1
 0 <= x264 <= 1
 0 <= x265 <= 1
 0 <= x266 <= 1
 0 <= x267 <= 1
 0 <= x268 <= 1
 0 <= x269 <= 1
 0 <= x270 <= 1
 0 <= x271 <= 1
 0 <= x272 <= 1
 0 <= x273 <= 1
 0 <= x274 <= 1
 0 <= x275 <= 1
 0 <= x276 <= 1
 0 <= x277 <= 1
 0 <= x278 <= 1
 0 <= x279 <= 1
 0 <= x280 <= 1
 0 <= x281 <= 1
 0 <= x282 <= 1
 0 <= x283 <= 1
 0 <= x284 <= 1
 0 <= x285 <= 1
 0 <= x286 <= 1
 0 <= x287 <= 1
 0 <= x288 <= 1
 0 <= x289 <= 1
 0 <= x290 <= 1
 0 <= x291 <= 1
 0 <= x292 <= 1
 0 <= x293 <= 1
 0 <= x294 <= 1
 0 <= x295 <= 1
 0 <= x296 <= 1
 0 <= x297 <= 1
 0 <= x298 <= 1
 0 <= x299 <= 1
 0 <= x300 <= 1
 0 <= x301 <= 1
 0 <= x302 <= 1
 0 <= x303 <= 1
 0 <= x304 <= 1
 0 <= x305 <= 1
 0 <= x306 <= 1
 0 <= x307 <= 1
 0 <= x308 <= 1
 0 <= x309 <= 1
 0 <= x310 <= 1
 0 <= x311 <= 1
 0 <= x312 <= 1
 0 <= x313 <= 1
 0 <= x314 <= 1
 0 <= x315 <= 1
 0 <= x316 <= 1
 0 <= x317 <= 1
 0 <= x318 <= 1
 0 <= x319 <= 1
 0 <= x320 <= 1
 0 <= x321 <= 1
 0 <= x322 <= 1
 0 <= x323 <= 1
 0 <= x324 <= 1
 0 <= x325 <= 1
 0 <= x326 <= 1
 0 <= x327 <= 1
 0 <= x328 <= 1
 0 <= x329 <= 1
 0 <= x330 <= 1
 0 <= x331 <= 1
 0 <= x332 <= 1
 0 <= x333 <= 1
 0 <= x334 <= 1
 0 <= x335 <= 1
 0 <= x336 <= 1
 0 <= x337 <= 1
 0 <= x338 <= 1
 0 <= x339 <= 1
 0 <= x340 <= 1
 0 <= x341 <= 1
 0 <= x342 <= 1
 0 <= x343 <= 1
 0 <= x344 <= 1
 0 <= x345 <= 1
 0 <= x346 <= 1
 0 <= x347 <= 1
 0 <= x348 <= 1
 0 <= x349 <= 1
 0 <= x350 <= 1
 0 <= x351 <= 1
 0 <= x352 <= 1
 0 <= x353 <= 1
 0 <= x354 <= 1
 0 <= x355 <= 1
 0 <= x356 <= 1
 0 <= x357 <= 1
 0 <= x358 <= 1
 0 <= x359 <= 1
 0 <= x360 <= 1
 0 <= x361 <= 1
 0 <= x362 <= 1
 0 <= x363 <= 1
 0 <= x364 <= 1
 0 <= x365 <= 1
 0 <= x366 <= 1
 0 <= x367 <= 1
 0 <= x368 <= 1
 0 <= x369 <= 1
 0 <= x370 <= 1
 0 <= x371 <= 1
 0 <= x372 <= 1
 0 <= x373 <= 1
 0 <= x374 <= 1
 0 <= x375 <= 1
 0 <= x376 <= 1
 0 <= x377 <= 1
 0 <= x378 <= 1
 0 <= x379 <= 1
 0 <= x380 <= 1
 0 <= x381 <= 1
 0 <= x382 <= 1
 0 <= x383 <= 1
 0 <= x384 <= 1
 0 <= x385 <= 1
 0 <= x386 <= 1
 0 <= x387 <= 1
 0 <= x388 <= 1
 0 <= x389 <= 1
 0 <= x390 <= 1
 0 <= x391 <= 1
 0 <= x392 <= 1
 0 <= x393 <= 1
 0 <= x394 <= 1
 0 <= x395 <= 1
 0 <= x396 <= 1
 0 <= x397 <= 1
 0 <= x398 <= 1
 0 <= x399 <= 1
 0 <= x400 <= 1
 0 <= x401 <= 1
 0 <= x402 <= 1
 0 <= x403 <= 1
 0 <= x404 <= 1
 0 <= x405 <= 1
 0 <= x406 <= 1
 0 <= x407 <= 1
 0 <= x408 <= 1
 0 <= x409 <= 1
 0 <= x410 <= 1
 0 <= x411 <= 1
 0 <= x412 <= 1
 0 <= x413 <= 1
 0 <= x414 <= 1
 0 <= x415 <= 1
 0 <= x416 <= 1
 0 <= x417 <= 1
 0 <= x418 <= 1
 0 <= x419 <= 1
 0 <= x420 <= 1
 0 <= x421 <= 1
 0 <= x422 <= 1
 0 <= x423 <= 1
 0 <= x424 <= 1
 0 <= x425 <= 1
 0 <= x426 <= 1
 0 <= x427 <= 1
 0 <= x428 <= 1
 0 <= x429 <= 1
 0 <= x430 <= 1
 0 <= x431 <= 1
 0 <= x432 <= 1
 0 <= x433 <= 1
 0 <= x434 <= 1
 0 <= x435 <= 1
 0 <= x436 <= 1
 0 <= x437 <= 1
 0 <= x438 <= 1
 0 <= x439 <= 1
 0 <= x440 <= 1
 0 <= x441 <= 1
 0 <= x442 <= 1
 0 <= x443 <= 1
 0 <= x444 <= 1
 0 <= x445 <= 1
 0 <= x446 <= 1
 0 <= x447 <= 1
 0 <= x448 <= 1
 0 <= x449 <= 1
 0 <= x450 <= 1
 0 <= x451 <= 1
 0 <= x452 <= 1
 0 <= x453 <= 1
 0 <= x454 <= 1
 0 <= x455 <= 1
 0 <= x456 <= 1
 0 <= x457 <= 1
 0 <= x458 <= 1
 0 <= x459 <= 1
 0 <= x460 <= 1
 0 <= x461 <= 1
 0 <= x462 <= 1
 0 <= x463 <= 1
 0 <= x464 <= 1
 0 <= x465 <= 1
 0 <= x466 <= 1
 0 <= x467 <= 1
 0 <= x468 <= 1
 0 <= x469 <= 1
 0 <= x470 <= 1
 0 <= x471 <= 1
 0 <= x472 <= 1
 0 <= x473 <= 1
 0 <= x474 <= 1
 0 <= x475 <= 1
 0 <= x476 <= 1
 0 <= x477 <= 1
 0 <= x478 <= 1
 0 <= x479 <= 1
 0 <= x480 <= 1
 0 <= x481 <= 1
 0 <= x482 <= 1
 0 <= x483 <= 1
 0 <= x484 <= 1
 0 <= x485 <= 1
 0 <= x486 <= 1
 0 <= x487 <= 1
 0 <= x488 <= 1
 0 <= x489 <= 1
 0 <= x490 <= 1
 0 <= x491 <= 1
 0 <= x492 <= 1
 0 <= x493 <= 1
 0 <= x494 <= 1
 0 <= x495 <= 1
 0 <= x496 <= 1
 0 <= x497 <= 1
 0 <= x498 <= 1
 0 <= x499 <= 1
 0 <= x500 <= 1
 0 <= x501 <= 1
 0 <= x502 <= 1
 0 <= x503 <= 1
 0 <= x504 <= 1
 0 <= x505 <= 1
 0 <= x506 <= 1
 0 <= x507 <= 1
 0 <= x508 <= 1
 0 <= x509 <= 1
 0 <= x510 <= 1
 0 <= x511 <= 1
 0 <= x512 <= 1
 0 <= x513 <= 1
 0 <= x514 <= 1
 0 <= x515 <= 1
 0 <= x516 <= 1
 0 <= x517 <= 1
 0 <= x518 <= 1
 0 <= x519 <= 1
 0 <= x520 <= 1
 0 <= x521 <= 1
 0 <= x522 <= 1
 0 <= x523 <= 1
 0 <= x524 <= 1
 0 <= x525 <= 1
 0 <= x526 <= 1
 0 <= x527 <= 1
 0 <= x528 <= 1
 0 <= x529 <= 1
 0 <= x530 <= 1
 0 <= x531 <= 1
 0 <= x532 <= 1
 0 <= x533 <= 1
 0 <= x534 <= 1
 0 <= x535 <= 1
 0 <= x536 <= 1
 0 <= x537 <= 1
 0 <= x538 <= 1
 0 <= x539 <= 1
 0 <= x540 <= 1
 0 <= x541 <= 1
 0 <= x542 <= 1
 0 <= x543 <= 1
 0 <= x544 <= 1
 0 <= x545 <= 1
 0 <= x546 <= 1
 0 <= x547 <= 1
 0 <= x548 <= 1
 0 <= x549 <= 1
 0 <= x550 <= 1
Binaries
 x501  x502  x503  x504  x505  x506  x507  x508  x509  x510  x511  x512  x513 
 x514  x515  x516  x517  x518  x519  x520  x521  x522  x523  x524  x525  x526 
 x527  x528  x529  x530  x531  x532  x533  x534  x535  x536  x537  x538  x539 
 x540  x541  x542  x543  x544  x545  x546  x547  x548  x549  x550 
End
